c generated by sgen
p cnf 81 172
-2 -3 -4 0
-1 -3 -4 0
-1 -2 -4 0
-1 -2 -3 0
-6 -7 -8 0
-5 -7 -8 0
-5 -6 -8 0
-5 -6 -7 0
-10 -11 -12 0
-9 -11 -12 0
-9 -10 -12 0
-9 -10 -11 0
-14 -15 -16 0
-13 -15 -16 0
-13 -14 -16 0
-13 -14 -15 0
-18 -19 -20 0
-17 -19 -20 0
-17 -18 -20 0
-17 -18 -19 0
-22 -23 -24 0
-21 -23 -24 0
-21 -22 -24 0
-21 -22 -23 0
-26 -27 -28 0
-25 -27 -28 0
-25 -26 -28 0
-25 -26 -27 0
-30 -31 -32 0
-29 -31 -32 0
-29 -30 -32 0
-29 -30 -31 0
-34 -35 -36 0
-33 -35 -36 0
-33 -34 -36 0
-33 -34 -35 0
-38 -39 -40 0
-37 -39 -40 0
-37 -38 -40 0
-37 -38 -39 0
-42 -43 -44 0
-41 -43 -44 0
-41 -42 -44 0
-41 -42 -43 0
-46 -47 -48 0
-45 -47 -48 0
-45 -46 -48 0
-45 -46 -47 0
-50 -51 -52 0
-49 -51 -52 0
-49 -50 -52 0
-49 -50 -51 0
-54 -55 -56 0
-53 -55 -56 0
-53 -54 -56 0
-53 -54 -55 0
-58 -59 -60 0
-57 -59 -60 0
-57 -58 -60 0
-57 -58 -59 0
-62 -63 -64 0
-61 -63 -64 0
-61 -62 -64 0
-61 -62 -63 0
-66 -67 -68 0
-65 -67 -68 0
-65 -66 -68 0
-65 -66 -67 0
-70 -71 -72 0
-69 -71 -72 0
-69 -70 -72 0
-69 -70 -71 0
-74 -75 -76 0
-73 -75 -76 0
-73 -74 -76 0
-73 -74 -75 0
-77 -78 -79 0
-77 -78 -80 0
-77 -78 -81 0
-77 -79 -80 0
-77 -79 -81 0
-77 -80 -81 0
-78 -79 -80 0
-78 -79 -81 0
-78 -80 -81 0
-79 -80 -81 0
54 12 77 0
23 12 77 0
23 54 77 0
23 54 12 0
6 33 42 0
81 33 42 0
81 6 42 0
81 6 33 0
2 79 7 0
28 79 7 0
28 2 7 0
28 2 79 0
3 10 44 0
67 10 44 0
67 3 44 0
67 3 10 0
31 73 48 0
66 73 48 0
66 31 48 0
66 31 73 0
40 57 24 0
46 57 24 0
46 40 24 0
46 40 57 0
52 56 37 0
68 56 37 0
68 52 37 0
68 52 56 0
11 45 8 0
62 45 8 0
62 11 8 0
62 11 45 0
80 32 59 0
69 32 59 0
69 80 59 0
69 80 32 0
65 61 35 0
27 61 35 0
27 65 35 0
27 65 61 0
49 19 5 0
22 19 5 0
22 49 5 0
22 49 19 0
29 63 41 0
53 63 41 0
53 29 41 0
53 29 63 0
36 58 74 0
55 58 74 0
55 36 74 0
55 36 58 0
76 26 21 0
13 26 21 0
13 76 21 0
13 76 26 0
51 47 34 0
1 47 34 0
1 51 34 0
1 51 47 0
70 9 75 0
39 9 75 0
39 70 75 0
39 70 9 0
25 72 43 0
18 72 43 0
18 25 43 0
18 25 72 0
15 17 30 0
38 17 30 0
38 15 30 0
38 15 17 0
78 71 14 0
50 71 14 0
50 78 14 0
50 78 71 0
20 64 60 0
20 64 16 0
20 64 4 0
20 60 16 0
20 60 4 0
20 16 4 0
64 60 16 0
64 60 4 0
64 16 4 0
60 16 4 0
